;; Original file: adr_119.smt2
(set-logic HORN)
(declare-fun |map$unknown:2| (Int Int) Bool)


(assert (forall ((|$knormal:2| Int)
         (|$alpha-1:x| Int)
         (|$knormal:1| Int)
         (|$V-reftype:10| Int)
         (|$knormal:3| Int))
  (let ((a!1 (and (= |$knormal:2| (- |$alpha-1:x| 1))
                  (= (not (= 0 |$knormal:1|)) (= |$alpha-1:x| 0))
                  (= |$V-reftype:10| (+ 1 |$knormal:3|))
                  (not (not (= 0 |$knormal:1|)))
                  (|map$unknown:2| |$knormal:3| |$knormal:2|)
                  true)))
    (=> a!1 (|map$unknown:2| |$V-reftype:10| |$alpha-1:x|)))))
(assert (forall ((|$knormal:1| Int) (|$alpha-1:x| Int) (|$V-reftype:8| Int))
  (let ((a!1 (and (= (not (= 0 |$knormal:1|)) (= |$alpha-1:x| 0))
                  (= |$V-reftype:8| 0)
                  (not (= 0 |$knormal:1|))
                  true)))
    (=> a!1 (|map$unknown:2| |$V-reftype:8| |$alpha-1:x|)))))
(assert (forall ((|$knormal:7| Int) (|$knormal:5| Int) (|$alpha-2:n| Int))
  (let ((a!1 (and (= (not (= 0 |$knormal:7|))
                     (= |$knormal:5| |$alpha-2:n|))
                  (not (not (= 0 |$knormal:7|)))
                  (|map$unknown:2| |$knormal:5| |$alpha-2:n|))))
    (=> a!1 false))))
(check-sat)
